true true true
presolving:
presolving (0 rounds: 0 fast, 0 medium, 0 exhaustive):
 0 deleted vars, 0 deleted constraints, 0 added constraints, 0 tightened bounds, 0 added holes, 0 changed sides, 0 changed coefficients
 0 implications, 0 cliques
presolved problem has 55 variables (55 bin, 0 int, 0 impl, 0 cont) and 45 constraints
     45 constraints of type <linear>
transformed objective value is always integral (scale: 1)
Presolving Time: 0.00

 time | node  | left  |LP iter|LP it/n|mem/heur|mdpt |vars |cons |rows |cuts |sepa|confs|strbr|  dualbound   | primalbound  |  gap   | compl. 
p 0.0s|     1 |     0 |     0 |     - |shiftand|   0 |  55 |  45 |  45 |   0 |  0 |   0 |   0 |      --      | 1.000000e+01 |    Inf | unknown
 time | node  | left  |LP iter|LP it/n|mem/heur|mdpt |vars |cons |rows |cuts |sepa|confs|strbr|  dualbound   | primalbound  |  gap   | compl. 
  0.0s|     1 |     0 |    38 |     - |  1783k |   0 | 426 |  45 |  45 |   0 |  0 |   0 |   0 | 1.000000e+00 | 1.000000e+01 | 900.00%| unknown
 time | node  | left  |LP iter|LP it/n|mem/heur|mdpt |vars |cons |rows |cuts |sepa|confs|strbr|  dualbound   | primalbound  |  gap   | compl. 
  0.2s|     1 |     0 |   322 |     - |  3977k |   0 |1182 |  45 |  45 |   0 |  0 |   0 |   0 | 9.000000e+00 | 1.000000e+01 |  11.11%| unknown
 time | node  | left  |LP iter|LP it/n|mem/heur|mdpt |vars |cons |rows |cuts |sepa|confs|strbr|  dualbound   | primalbound  |  gap   | compl. 
  0.3s|     1 |     2 |   631 |     - |  4411k |   0 |1182 |  45 |  45 |   0 |  1 |   0 |   0 | 9.000000e+00 | 1.000000e+01 |  11.11%| unknown
 time | node  | left  |LP iter|LP it/n|mem/heur|mdpt |vars |cons |rows |cuts |sepa|confs|strbr|  dualbound   | primalbound  |  gap   | compl. 
  0.4s|     2 |     3 |   655 |  24.0 |  4467k |   1 |1182 |  45 |  45 |   0 |  1 |   0 |   0 | 9.000000e+00 | 1.000000e+01 |  11.11%| unknown
 time | node  | left  |LP iter|LP it/n|mem/heur|mdpt |vars |cons |rows |cuts |sepa|confs|strbr|  dualbound   | primalbound  |  gap   | compl. 
  0.4s|     3 |     4 |   666 |  17.5 |  4537k |   2 |1182 |  45 |  45 |   0 |  1 |   0 |   0 | 9.000000e+00 | 1.000000e+01 |  11.11%| unknown
 time | node  | left  |LP iter|LP it/n|mem/heur|mdpt |vars |cons |rows |cuts |sepa|confs|strbr|  dualbound   | primalbound  |  gap   | compl. 
  0.4s|     4 |     5 |  1170 | 179.7 |  4789k |   2 |1182 |  45 |  45 |   0 |  1 |   0 |   0 | 9.000000e+00 | 1.000000e+01 |  11.11%| unknown
 time | node  | left  |LP iter|LP it/n|mem/heur|mdpt |vars |cons |rows |cuts |sepa|confs|strbr|  dualbound   | primalbound  |  gap   | compl. 
  0.5s|     5 |     6 |  1179 | 137.0 |  4833k |   2 |1182 |  45 |  45 |   0 |  1 |   0 |   0 | 9.000000e+00 | 1.000000e+01 |  11.11%| unknown
 time | node  | left  |LP iter|LP it/n|mem/heur|mdpt |vars |cons |rows |cuts |sepa|confs|strbr|  dualbound   | primalbound  |  gap   | compl. 
  0.5s|     6 |     7 |  1180 | 109.8 |  4849k |   2 |1182 |  45 |  45 |   0 |  1 |   0 |   0 | 9.000000e+00 | 1.000000e+01 |  11.11%| unknown
 time | node  | left  |LP iter|LP it/n|mem/heur|mdpt |vars |cons |rows |cuts |sepa|confs|strbr|  dualbound   | primalbound  |  gap   | compl. 
  0.6s|     7 |     8 |  1182 |  91.8 |  4850k |   3 |1182 |  45 |  45 |   0 |  1 |   0 |   0 | 9.000000e+00 | 1.000000e+01 |  11.11%| unknown
 time | node  | left  |LP iter|LP it/n|mem/heur|mdpt |vars |cons |rows |cuts |sepa|confs|strbr|  dualbound   | primalbound  |  gap   | compl. 
  0.6s|     8 |     9 |  1205 |  82.0 |  4850k |   3 |1182 |  45 |  45 |   0 |  1 |   0 |   0 | 9.000000e+00 | 1.000000e+01 |  11.11%| unknown
 time | node  | left  |LP iter|LP it/n|mem/heur|mdpt |vars |cons |rows |cuts |sepa|confs|strbr|  dualbound   | primalbound  |  gap   | compl. 
  0.7s|     9 |    10 |  1215 |  73.0 |  4861k |   4 |1182 |  45 |  45 |   0 |  1 |   0 |   0 | 9.000000e+00 | 1.000000e+01 |  11.11%| unknown
 time | node  | left  |LP iter|LP it/n|mem/heur|mdpt |vars |cons |rows |cuts |sepa|confs|strbr|  dualbound   | primalbound  |  gap   | compl. 
  0.8s|    10 |    11 |  1249 |  68.7 |  4861k |   4 |1182 |  45 |  45 |   0 |  1 |   0 |   0 | 9.000000e+00 | 1.000000e+01 |  11.11%| unknown
 time | node  | left  |LP iter|LP it/n|mem/heur|mdpt |vars |cons |rows |cuts |sepa|confs|strbr|  dualbound   | primalbound  |  gap   | compl. 
  0.9s|    11 |    12 |  1419 |  78.8 |  5806k |   5 |1320 |  45 |  45 |   0 |  1 |   0 |   0 | 9.000000e+00 | 1.000000e+01 |  11.11%| unknown
 time | node  | left  |LP iter|LP it/n|mem/heur|mdpt |vars |cons |rows |cuts |sepa|confs|strbr|  dualbound   | primalbound  |  gap   | compl. 
  0.9s|    12 |    13 |  1496 |  78.6 |  6103k |   5 |1320 |  45 |  45 |   0 |  1 |   0 |   0 | 9.000000e+00 | 1.000000e+01 |  11.11%| unknown
 time | node  | left  |LP iter|LP it/n|mem/heur|mdpt |vars |cons |rows |cuts |sepa|confs|strbr|  dualbound   | primalbound  |  gap   | compl. 
  1.0s|    13 |    14 |  1528 |  74.8 |  6119k |   5 |1320 |  45 |  45 |   0 |  1 |   0 |   0 | 9.000000e+00 | 1.000000e+01 |  11.11%| unknown
 time | node  | left  |LP iter|LP it/n|mem/heur|mdpt |vars |cons |rows |cuts |sepa|confs|strbr|  dualbound   | primalbound  |  gap   | compl. 
  1.1s|    14 |    15 |  1539 |  69.8 |  6125k |   6 |1320 |  45 |  45 |   0 |  1 |   0 |   0 | 9.000000e+00 | 1.000000e+01 |  11.11%| unknown
 time | node  | left  |LP iter|LP it/n|mem/heur|mdpt |vars |cons |rows |cuts |sepa|confs|strbr|  dualbound   | primalbound  |  gap   | compl. 
  1.1s|    15 |    16 |  1544 |  65.2 |  6126k |   7 |1320 |  45 |  45 |   0 |  1 |   0 |   0 | 9.000000e+00 | 1.000000e+01 |  11.11%| unknown
 time | node  | left  |LP iter|LP it/n|mem/heur|mdpt |vars |cons |rows |cuts |sepa|confs|strbr|  dualbound   | primalbound  |  gap   | compl. 
  1.2s|    16 |    17 |  1552 |  61.4 |  6128k |   8 |1320 |  45 |  45 |   0 |  1 |   0 |   0 | 9.000000e+00 | 1.000000e+01 |  11.11%| unknown
 time | node  | left  |LP iter|LP it/n|mem/heur|mdpt |vars |cons |rows |cuts |sepa|confs|strbr|  dualbound   | primalbound  |  gap   | compl. 
  1.3s|    17 |    18 |  1579 |  59.2 |  6131k |   9 |1320 |  45 |  45 |   0 |  1 |   0 |   0 | 9.000000e+00 | 1.000000e+01 |  11.11%| unknown
 time | node  | left  |LP iter|LP it/n|mem/heur|mdpt |vars |cons |rows |cuts |sepa|confs|strbr|  dualbound   | primalbound  |  gap   | compl. 
  1.3s|    18 |    19 |  1592 |  56.5 |  6131k |   9 |1320 |  45 |  45 |   0 |  1 |   0 |   0 | 9.000000e+00 | 1.000000e+01 |  11.11%| unknown
 time | node  | left  |LP iter|LP it/n|mem/heur|mdpt |vars |cons |rows |cuts |sepa|confs|strbr|  dualbound   | primalbound  |  gap   | compl. 
  1.4s|    19 |    20 |  1599 |  53.8 |  6135k |  10 |1320 |  45 |  45 |   0 |  1 |   0 |   0 | 9.000000e+00 | 1.000000e+01 |  11.11%| unknown
 time | node  | left  |LP iter|LP it/n|mem/heur|mdpt |vars |cons |rows |cuts |sepa|confs|strbr|  dualbound   | primalbound  |  gap   | compl. 
  1.5s|    20 |    21 |  1628 |  52.5 |  6135k |  11 |1320 |  45 |  45 |   0 |  1 |   0 |   0 | 9.000000e+00 | 1.000000e+01 |  11.11%| unknown
 time | node  | left  |LP iter|LP it/n|mem/heur|mdpt |vars |cons |rows |cuts |sepa|confs|strbr|  dualbound   | primalbound  |  gap   | compl. 
  1.6s|    21 |    22 |  1639 |  50.4 |  6137k |  12 |1320 |  45 |  45 |   0 |  1 |   0 |   0 | 9.000000e+00 | 1.000000e+01 |  11.11%| unknown
 time | node  | left  |LP iter|LP it/n|mem/heur|mdpt |vars |cons |rows |cuts |sepa|confs|strbr|  dualbound   | primalbound  |  gap   | compl. 
  1.7s|    22 |    23 |  1763 |  53.9 |  6191k |  13 |1320 |  45 |  45 |   0 |  1 |   0 |   0 | 9.000000e+00 | 1.000000e+01 |  11.11%| unknown
 time | node  | left  |LP iter|LP it/n|mem/heur|mdpt |vars |cons |rows |cuts |sepa|confs|strbr|  dualbound   | primalbound  |  gap   | compl. 
  1.8s|    23 |    24 |  1788 |  52.6 |  6192k |  13 |1320 |  45 |  45 |   0 |  1 |   0 |   0 | 9.000000e+00 | 1.000000e+01 |  11.11%| unknown
 time | node  | left  |LP iter|LP it/n|mem/heur|mdpt |vars |cons |rows |cuts |sepa|confs|strbr|  dualbound   | primalbound  |  gap   | compl. 
  1.8s|    24 |    25 |  1807 |  51.1 |  6201k |  13 |1320 |  45 |  45 |   0 |  1 |   0 |   0 | 9.000000e+00 | 1.000000e+01 |  11.11%| unknown
 time | node  | left  |LP iter|LP it/n|mem/heur|mdpt |vars |cons |rows |cuts |sepa|confs|strbr|  dualbound   | primalbound  |  gap   | compl. 
  1.9s|    25 |    26 |  1834 |  50.1 |  6201k |  13 |1320 |  45 |  45 |   0 |  1 |   0 |   0 | 9.000000e+00 | 1.000000e+01 |  11.11%| unknown
 time | node  | left  |LP iter|LP it/n|mem/heur|mdpt |vars |cons |rows |cuts |sepa|confs|strbr|  dualbound   | primalbound  |  gap   | compl. 
  2.0s|    26 |    27 |  1850 |  48.8 |  6207k |  13 |1320 |  45 |  45 |   0 |  1 |   0 |   0 | 9.000000e+00 | 1.000000e+01 |  11.11%| unknown
 time | node  | left  |LP iter|LP it/n|mem/heur|mdpt |vars |cons |rows |cuts |sepa|confs|strbr|  dualbound   | primalbound  |  gap   | compl. 
r 2.1s|    27 |     0 |  1861 |  47.3 |simplero|  13 |1320 |  45 |  45 |   0 |  0 |   0 |   0 | 9.000000e+00 | 9.000000e+00 |   0.00%|  99.99%

SCIP Status        : problem is solved [optimal solution found]
Solving Time (sec) : 2.11
Solving Nodes      : 27
Primal Bound       : +9.00000000000000e+00 (4 solutions)
Dual Bound         : +9.00000000000000e+00
Gap                : 0.00 %
Running with parallel: True bidir: True symbreak: True
Number of Nodes:  45
47.26803840877915% holds
starting cheapest insertion heuristic
Heuristic without TSP improvement:  10
Heuristic without TSP improvement time:  0.1
Heuristic Sol:  10
Heuristic total time:  0.1
[[43, 18, 35, 20], [44, 3, 34, 13, 21, 4, 30], [42, 39, 33, 16, 40, 19], [41, 15, 8, 12, 26], [38, 10, 6, 28, 22], [37, 7], [36, 0, 1, 9], [31, 17, 11, 25, 14, 2], [32, 29], [27, 24, 5, 23]]
Instance path:  /home/htc/mghannam/SCRATCH/lccp-rust/data/at84_ftv44.npcc
Timelimit:  7200
Heuristic without TSP improvement:  10
Heuristic without TSP improvement time:  0.1
Heuristic Sol:  10
Heuristic total time:  0.1
at 1 zero_duals: 35
at1, LP obj: 10.0 n_added_paths: 371
at 1 zero_duals: 29
at1, LP obj: 10.0 n_added_paths: 65
at 1 zero_duals: 13
at1, LP obj: 9.857142857142858 n_added_paths: 258
at 1 zero_duals: 6
at1, LP obj: 9.142857142857142 n_added_paths: 319
at 1 zero_duals: 5
at1, LP obj: 8.59709618874773 n_added_paths: 71
at 1 zero_duals: 7
at1, LP obj: 8.5 n_added_paths: 15
at 1 zero_duals: 7
at1, LP obj: 8.459574468085107 n_added_paths: 8
at 1 zero_duals: 6
Switching to elementary pricing
at1, LP obj: 8.400597907324364 n_added_paths: 20
updated lowerbound from 1.0 to 9
Gap too small = 0, stopping pricing with lb = 9
Gap too small = 0, stopping pricing with lb = 9
Gap too small = 0, stopping pricing with lb = 9
Gap too small = 0, stopping pricing with lb = 9
Gap too small = 0, stopping pricing with lb = 9
Gap too small = 0, stopping pricing with lb = 9
Gap too small = 0, stopping pricing with lb = 9
Gap too small = 0, stopping pricing with lb = 9
Gap too small = 0, stopping pricing with lb = 9
Gap too small = 0, stopping pricing with lb = 9
at 20 zero_duals: 13
at20, LP obj: 9.041666666666666 n_added_paths: 138
Gap too small = 0, stopping pricing with lb = 9
Gap too small = 0, stopping pricing with lb = 9
Gap too small = 0, stopping pricing with lb = 9
Gap too small = 0, stopping pricing with lb = 9
Gap too small = 0, stopping pricing with lb = 9
Gap too small = 0, stopping pricing with lb = 9
Gap too small = 0, stopping pricing with lb = 9
Gap too small = 0, stopping pricing with lb = 9
Gap too small = 0, stopping pricing with lb = 9
Gap too small = 0, stopping pricing with lb = 9
Gap too small = 0, stopping pricing with lb = 9
Gap too small = 0, stopping pricing with lb = 9
Gap too small = 0, stopping pricing with lb = 9
Gap too small = 0, stopping pricing with lb = 9
Gap too small = 0, stopping pricing with lb = 9
Gap too small = 0, stopping pricing with lb = 9
Best solution found:
t_[43, 18, 35, 20, 43] 1.0 1.0
checking cycle [43, 18, 35, 20, 43]
[43, 18, 35, 20, 43] 202 146
t_[27, 24, 5, 23, 27] 1.0 1.0
checking cycle [27, 24, 5, 23, 27]
[27, 24, 5, 23, 27] 284 251
[40, 10, 38, 32, 40] 1.0 1.0
checking cycle [40, 10, 38, 32, 40]
[40, 10, 38, 32, 40] 221 177
[31, 29, 6, 22, 28, 31] 1.0 1.0
checking cycle [31, 29, 6, 22, 28, 31]
[31, 29, 6, 22, 28, 31] 273 263
[42, 16, 36, 39, 33, 19, 42] 1.0 1.0
checking cycle [42, 16, 36, 39, 33, 19, 42]
[42, 16, 36, 39, 33, 19, 42] 215 191
[44, 14, 25, 11, 17, 30, 44] 1.0 1.0
checking cycle [44, 14, 25, 11, 17, 30, 44]
[44, 14, 25, 11, 17, 30, 44] 202 195
[9, 0, 1, 7, 4, 2, 9] 1.0 1.0
checking cycle [9, 0, 1, 7, 4, 2, 9]
[9, 0, 1, 7, 4, 2, 9] 351 331
[26, 12, 15, 8, 21, 13, 26] 1.0 1.0
checking cycle [26, 12, 15, 8, 21, 13, 26]
[26, 12, 15, 8, 21, 13, 26] 285 256
[41, 34, 37, 3, 41] 1.0 1.0
checking cycle [41, 34, 37, 3, 41]
[41, 34, 37, 3, 41] 219 164
